(set-option :produce-models true); benchmark generated from python API
(set-info :status unknown)
(declare-fun l_1_0_9 () Real)
(declare-fun l_1_0_8 () Real)
(declare-fun l_1_0_7 () Real)
(declare-fun l_1_0_6 () Real)
(declare-fun l_1_0_5 () Real)
(declare-fun l_1_0_4 () Real)
(declare-fun l_1_0_3 () Real)
(declare-fun l_1_0_2 () Real)
(declare-fun l_1_0_1 () Real)
(declare-fun _a_0_ () Real)
(declare-fun l_1_0_11 () Real)
(declare-fun l_1_0_10 () Real)
(declare-fun _a_1_ () Real)
(declare-fun l_1_0_14 () Real)
(declare-fun l_1_0_13 () Real)
(declare-fun l_1_0_12 () Real)
(declare-fun _a_2_ () Real)
(declare-fun _a_3_ () Real)
(declare-fun _a_4_ () Real)
(declare-fun _a_5_ () Real)
(declare-fun l_1_1_6 () Real)
(declare-fun l_1_1_5 () Real)
(declare-fun l_1_1_4 () Real)
(declare-fun l_1_1_3 () Real)
(declare-fun l_1_1_2 () Real)
(declare-fun l_1_1_15 () Real)
(declare-fun l_1_1_14 () Real)
(declare-fun l_1_1_13 () Real)
(declare-fun l_1_1_12 () Real)
(declare-fun l_1_1_1 () Real)
(declare-fun l_1_1_9 () Real)
(declare-fun l_1_1_8 () Real)
(declare-fun l_1_1_7 () Real)
(declare-fun l_1_1_11 () Real)
(declare-fun l_1_1_10 () Real)
(declare-fun l_1_1_18 () Real)
(declare-fun l_1_1_17 () Real)
(declare-fun l_1_1_16 () Real)
(declare-fun l_1_1_20 () Real)
(declare-fun l_1_1_19 () Real)
(declare-fun l_1_2_8 () Real)
(declare-fun l_1_2_7 () Real)
(declare-fun l_1_2_5 () Real)
(declare-fun l_1_2_4 () Real)
(declare-fun l_1_2_15 () Real)
(declare-fun l_1_2_14 () Real)
(declare-fun l_1_2_13 () Real)
(declare-fun l_1_2_11 () Real)
(declare-fun l_1_2_10 () Real)
(declare-fun l_1_2_1 () Real)
(declare-fun l_1_2_9 () Real)
(declare-fun l_1_2_6 () Real)
(declare-fun l_1_2_3 () Real)
(declare-fun l_1_2_2 () Real)
(declare-fun l_1_2_12 () Real)
(declare-fun l_1_2_17 () Real)
(declare-fun l_1_2_16 () Real)
(declare-fun l_1_2_20 () Real)
(declare-fun l_1_2_19 () Real)
(declare-fun l_1_2_18 () Real)
(assert
 (let ((?x46 (* l_1_0_9 l_1_0_9)))
 (let ((?x1581 (* 2.0 l_1_0_5)))
 (let ((?x1582 (* 4.0 l_1_0_4)))
 (let ((?x1583 (* 2.0 l_1_0_3)))
 (let ((?x49 (- (- (- (- (- _a_0_ (* 2.0 l_1_0_1)) l_1_0_2) ?x1583) ?x1582) ?x1581)))
 (= (- (- (- (- ?x49 l_1_0_6) l_1_0_7) l_1_0_8) ?x46) 0.0)))))))
(assert
 (let ((?x1582 (* 4.0 l_1_0_4)))
 (let ((?x1441 (* l_1_0_11 l_1_0_11)))
 (let ((?x599 (+ (- (- (+ _a_1_ l_1_0_1) (* l_1_0_10 l_1_0_10)) ?x1441) l_1_0_3)))
 (= (+ (+ ?x599 ?x1582) l_1_0_5) 0.0)))))
(assert
 (let ((?x1582 (* 4.0 l_1_0_4)))
 (let ((?x1291 (* l_1_0_14 l_1_0_14)))
 (let ((?x1417 (* l_1_0_13 l_1_0_13)))
 (let ((?x1418 (+ (- (- (- (+ _a_2_ l_1_0_1) (* l_1_0_12 l_1_0_12)) ?x1417) ?x1291) l_1_0_3)))
 (= (+ (+ ?x1418 ?x1582) l_1_0_5) 0.0))))))
(assert
 (= (- _a_3_ (* (* 2.0 l_1_0_12) l_1_0_9)) 0.0))
(assert
 (let ((?x1334 (- (- _a_4_ (* (* 2.0 l_1_0_10) l_1_0_12)) (* (* 2.0 l_1_0_11) l_1_0_13))))
 (= ?x1334 0.0)))
(assert
 (= (- _a_5_ (* (* 2.0 l_1_0_10) l_1_0_9)) 0.0))
(assert
 (= (- l_1_0_4) 0.0))
(assert
 (= (* (- 2.0) l_1_0_4) 0.0))
(assert
 (= (- l_1_0_4) 0.0))
(assert
 (>= l_1_0_1 0.0))
(assert
 (>= l_1_0_2 0.0))
(assert
 (>= l_1_0_3 0.0))
(assert
 (>= l_1_0_4 0.0))
(assert
 (>= l_1_0_5 0.0))
(assert
 (>= l_1_0_6 0.0))
(assert
 (>= l_1_0_7 0.0))
(assert
 (>= l_1_0_8 0.0))
(assert
 (>= l_1_0_9 0.0))
(assert
 (>= l_1_0_11 0.0))
(assert
 (>= l_1_0_14 0.0))
(assert
 (let ((?x1133 (* 3.0 l_1_1_6)))
 (let ((?x1126 (* 3.0 l_1_1_2)))
 (let ((?x1124 (* l_1_1_15 l_1_1_15)))
 (let ((?x1121 (* 3.0 l_1_1_13)))
 (let ((?x1118 (* 9.0 l_1_1_12)))
 (let ((?x1204 (* _a_0_ l_1_1_7)))
 (let ((?x1113 (+ (- (- (* (- _a_0_) l_1_1_10) (* _a_0_ l_1_1_11)) ?x1204) (* (* 3.0 _a_0_) l_1_1_8))))
 (let ((?x1122 (+ (- (- (+ ?x1113 (* (* 3.0 _a_0_) l_1_1_9)) l_1_1_1) ?x1118) ?x1121)))
 (let ((?x1130 (- (+ (- (- ?x1122 l_1_1_14) ?x1124) ?x1126) (* (* l_1_1_3 _a_0_) _a_0_))))
 (= (+ (+ (- (- ?x1130 l_1_1_4) l_1_1_5) ?x1133) (/ 121.0 100.0)) 0.0)))))))))))
(assert
 (let ((?x934 (* _a_3_ l_1_1_7)))
 (let ((?x931 (* _a_3_ l_1_1_11)))
 (let ((?x929 (* _a_3_ l_1_1_10)))
 (let ((?x935 (- (- (- (* (* (* (- 2.0) _a_0_) _a_3_) l_1_1_3) ?x929) ?x931) ?x934)))
 (let ((?x940 (+ (+ ?x935 (* (* 3.0 _a_3_) l_1_1_8)) (* (* 3.0 _a_3_) l_1_1_9))))
 (= (+ (- ?x940 (* (* 2.0 l_1_1_15) l_1_1_18)) 1.0) 0.0)))))))
(assert
 (let ((?x862 (* l_1_1_17 l_1_1_17)))
 (let ((?x431 (* l_1_1_16 l_1_1_16)))
 (let ((?x424 (* 6.0 l_1_1_12)))
 (let ((?x899 (* _a_1_ l_1_1_7)))
 (let ((?x425 (+ (- (- (* (- _a_1_) l_1_1_10) (* _a_1_ l_1_1_11)) ?x899) ?x424)))
 (let ((?x681 (- (- (- (- (- ?x425 l_1_1_13) ?x431) ?x862) l_1_1_2) (* l_1_1_3 (+ (* (* 2.0 _a_0_) _a_1_) (* _a_5_ _a_5_))))))
 (let ((?x606 (- (- (- ?x681 l_1_1_6) (* l_1_1_8 (- _a_0_ (* 3.0 _a_1_)))) (* l_1_1_9 (- _a_0_ (* 3.0 _a_1_))))))
 (= (- ?x606 (/ 1.0 5.0)) 0.0)))))))))
(assert
 (let ((?x401 (* l_1_1_20 l_1_1_20)))
 (let ((?x454 (* l_1_1_19 l_1_1_19)))
 (let ((?x452 (* l_1_1_18 l_1_1_18)))
 (let ((?x424 (* 6.0 l_1_1_12)))
 (let ((?x448 (* _a_2_ l_1_1_7)))
 (let ((?x450 (+ (- (- (* (- _a_2_) l_1_1_10) (* _a_2_ l_1_1_11)) ?x448) ?x424)))
 (let ((?x406 (- (- (- (- (- (- ?x450 l_1_1_13) ?x452) ?x454) l_1_1_2) ?x401) (* l_1_1_3 (+ (* (* 2.0 _a_0_) _a_2_) (* _a_3_ _a_3_))))))
 (let ((?x348 (- (- (- ?x406 l_1_1_6) (* l_1_1_8 (- _a_0_ (* 3.0 _a_2_)))) (* l_1_1_9 (- _a_0_ (* 3.0 _a_2_))))))
 (= ?x348 0.0))))))))))
(assert
 (let ((?x176 (+ (* (* 2.0 _a_0_) _a_4_) (* (* 2.0 _a_3_) _a_5_))))
 (let ((?x20 (* _a_4_ l_1_1_7)))
 (let ((?x21 (+ (- (- (* (- _a_4_) l_1_1_10) (* _a_4_ l_1_1_11)) ?x20) (* (* 3.0 _a_4_) l_1_1_8))))
 (let ((?x201 (- (+ ?x21 (* (* 3.0 _a_4_) l_1_1_9)) (* (* 2.0 l_1_1_16) l_1_1_18))))
 (= (- (- ?x201 (* (* 2.0 l_1_1_17) l_1_1_19)) (* l_1_1_3 ?x176)) 0.0))))))
(assert
 (let ((?x741 (* _a_5_ l_1_1_7)))
 (let ((?x740 (* _a_5_ l_1_1_11)))
 (let ((?x730 (* _a_5_ l_1_1_10)))
 (let ((?x747 (- (- (- (* (* (* (- 2.0) _a_0_) _a_5_) l_1_1_3) ?x730) ?x740) ?x741)))
 (let ((?x1351 (+ (+ ?x747 (* (* 3.0 _a_5_) l_1_1_8)) (* (* 3.0 _a_5_) l_1_1_9))))
 (= (- ?x1351 (* (* 2.0 l_1_1_15) l_1_1_16)) 0.0)))))))
(assert
 (let ((?x667 (- (- (- (* (- _a_1_) l_1_1_8) (* _a_1_ l_1_1_9)) l_1_1_12) (* (* l_1_1_3 _a_1_) _a_1_))))
 (= ?x667 0.0)))
(assert
 (let ((?x910 (* (- 2.0) l_1_1_12)))
 (let ((?x944 (- ?x910 (* l_1_1_3 (+ (* (* 2.0 _a_1_) _a_2_) (* _a_4_ _a_4_))))))
 (let ((?x1146 (- (- ?x944 (* l_1_1_8 (+ _a_1_ _a_2_))) (* l_1_1_9 (+ _a_1_ _a_2_)))))
 (= ?x1146 0.0)))))
(assert
 (let ((?x1271 (+ (* (* 2.0 _a_1_) _a_3_) (* (* 2.0 _a_4_) _a_5_))))
 (let ((?x626 (- (- (* (- _a_3_) l_1_1_8) (* _a_3_ l_1_1_9)) (* l_1_1_3 ?x1271))))
 (= ?x626 0.0))))
(assert
 (let ((?x137 (* _a_4_ l_1_1_9)))
 (let ((?x135 (* _a_4_ l_1_1_8)))
 (= (- (- (* (* (* (- 2.0) _a_1_) _a_4_) l_1_1_3) ?x135) ?x137) 0.0))))
(assert
 (let ((?x1020 (* _a_5_ l_1_1_9)))
 (let ((?x384 (* _a_5_ l_1_1_8)))
 (= (- (- (* (* (* (- 2.0) _a_1_) _a_5_) l_1_1_3) ?x384) ?x1020) 0.0))))
(assert
 (let ((?x463 (- (- (- (* (- _a_2_) l_1_1_8) (* _a_2_ l_1_1_9)) l_1_1_12) (* (* l_1_1_3 _a_2_) _a_2_))))
 (= ?x463 0.0)))
(assert
 (let ((?x916 (* _a_3_ l_1_1_9)))
 (let ((?x917 (* _a_3_ l_1_1_8)))
 (= (- (- (* (* (* (- 2.0) _a_2_) _a_3_) l_1_1_3) ?x917) ?x916) 0.0))))
(assert
 (let ((?x137 (* _a_4_ l_1_1_9)))
 (let ((?x135 (* _a_4_ l_1_1_8)))
 (= (- (- (* (* (* (- 2.0) _a_2_) _a_4_) l_1_1_3) ?x135) ?x137) 0.0))))
(assert
 (let ((?x1536 (+ (* (* 2.0 _a_2_) _a_5_) (* (* 2.0 _a_3_) _a_4_))))
 (let ((?x1538 (- (- (* (- _a_5_) l_1_1_8) (* _a_5_ l_1_1_9)) (* l_1_1_3 ?x1536))))
 (= ?x1538 0.0))))
(assert
 (>= l_1_1_1 0.0))
(assert
 (>= l_1_1_2 0.0))
(assert
 (>= l_1_1_3 0.0))
(assert
 (>= l_1_1_4 0.0))
(assert
 (>= l_1_1_5 0.0))
(assert
 (>= l_1_1_6 0.0))
(assert
 (>= l_1_1_7 0.0))
(assert
 (>= l_1_1_8 0.0))
(assert
 (>= l_1_1_9 0.0))
(assert
 (>= l_1_1_10 0.0))
(assert
 (>= l_1_1_11 0.0))
(assert
 (>= l_1_1_12 0.0))
(assert
 (>= l_1_1_13 0.0))
(assert
 (>= l_1_1_14 0.0))
(assert
 (>= l_1_1_15 0.0))
(assert
 (>= l_1_1_17 0.0))
(assert
 (>= l_1_1_20 0.0))
(assert
 (let ((?x491 (* 9.0 l_1_2_8)))
 (let ((?x482 (* l_1_2_15 l_1_2_15)))
 (let ((?x1386 (* 3.0 l_1_2_13)))
 (let ((?x1390 (* 3.0 l_1_2_11)))
 (let ((?x1378 (* 3.0 l_1_2_1)))
 (let ((?x1429 (* 1.0 _a_4_)))
 (let ((?x1069 (* _a_0_ l_1_2_9)))
 (let ((?x1087 (* _a_0_ l_1_2_3)))
 (let ((?x1068 (- (- (- (* (* (- 3.0) _a_0_) l_1_2_12) (* _a_0_ l_1_2_2)) ?x1087) (* (* 3.0 _a_0_) l_1_2_6))))
 (let ((?x1091 (+ (+ (+ (- ?x1068 ?x1069) _a_0_) (* 1.0 _a_1_)) (* 1.0 _a_2_))))
 (let ((?x1318 (- (- (- (+ ?x1091 (* 1.0 _a_3_)) ?x1429) (* 1.0 _a_5_)) ?x1378)))
 (let ((?x1388 (- (- (- (- ?x1318 (* (* l_1_2_10 _a_0_) _a_0_)) ?x1390) ?x1386) l_1_2_14)))
 (= (- (- (- (- (- ?x1388 ?x482) l_1_2_4) l_1_2_5) l_1_2_7) ?x491) 0.0))))))))))))))
(assert
 (let ((?x1519 (- (+ (+ (* _a_1_ l_1_2_12) (* _a_1_ l_1_2_6)) _a_1_) (* (* l_1_2_10 _a_1_) _a_1_))))
 (= (- ?x1519 l_1_2_8) 0.0)))
(assert
 (let ((?x1271 (+ (* (* 2.0 _a_1_) _a_3_) (* (* 2.0 _a_4_) _a_5_))))
 (let ((?x1396 (* _a_3_ l_1_2_6)))
 (let ((?x1394 (- (+ (+ (* 2.0 _a_1_) (* _a_3_ l_1_2_12)) ?x1396) (* l_1_2_10 ?x1271))))
 (= ?x1394 0.0)))))
(assert
 (let ((?x1563 (* 6.0 l_1_2_8)))
 (let ((?x1565 (* l_1_2_17 l_1_2_17)))
 (let ((?x1409 (* l_1_2_16 l_1_2_16)))
 (let ((?x1429 (* 1.0 _a_4_)))
 (let ((?x908 (* 2.0 _a_1_)))
 (let ((?x699 (* _a_1_ l_1_2_9)))
 (let ((?x559 (- (- (- (* (- _a_1_) l_1_2_2) (* _a_1_ l_1_2_3)) ?x699) ?x908)))
 (let ((?x553 (- (+ (+ (+ ?x559 ?x1429) _a_5_) l_1_2_1) (* l_1_2_10 (+ (* (* 2.0 _a_0_) _a_1_) (* _a_5_ _a_5_))))))
 (let ((?x1407 (- (+ ?x553 l_1_2_11) (* l_1_2_12 (+ (- _a_0_) (* 3.0 _a_1_))))))
 (let ((?x1562 (- (- (- (+ ?x1407 l_1_2_13) ?x1409) ?x1565) (* l_1_2_6 (+ (- _a_0_) (* 3.0 _a_1_))))))
 (= (+ ?x1562 ?x1563) 0.0))))))))))))
(assert
 (let ((?x1563 (* 6.0 l_1_2_8)))
 (let ((?x221 (* l_1_2_20 l_1_2_20)))
 (let ((?x224 (* l_1_2_19 l_1_2_19)))
 (let ((?x168 (* l_1_2_18 l_1_2_18)))
 (let ((?x1429 (* 1.0 _a_4_)))
 (let ((?x948 (* 2.0 _a_2_)))
 (let ((?x331 (* _a_2_ l_1_2_9)))
 (let ((?x1078 (+ (- (- (- _a_1_ (* _a_2_ l_1_2_2)) (* _a_2_ l_1_2_3)) ?x331) ?x948)))
 (let ((?x189 (- (+ (- (+ ?x1078 _a_3_) ?x1429) l_1_2_1) (* l_1_2_10 (+ (* (* 2.0 _a_0_) _a_2_) (* _a_3_ _a_3_))))))
 (let ((?x171 (- (+ ?x189 l_1_2_11) (* l_1_2_12 (+ (- _a_0_) (* 3.0 _a_2_))))))
 (let ((?x1088 (- (- (- (- (+ ?x171 l_1_2_13) ?x168) ?x224) ?x221) (* l_1_2_6 (+ (- _a_0_) (* 3.0 _a_2_))))))
 (= (+ ?x1088 ?x1563) 0.0)))))))))))))
(assert
 (let ((?x1429 (* 1.0 _a_4_)))
 (let ((?x548 (* _a_3_ l_1_2_9)))
 (let ((?x122 (* _a_3_ l_1_2_3)))
 (let ((?x838 (* _a_3_ l_1_2_2)))
 (let ((?x586 (- (- (* (* (* (- 2.0) _a_0_) _a_3_) l_1_2_10) (* 2.0 _a_1_)) (* (* 3.0 _a_3_) l_1_2_12))))
 (let ((?x550 (- (- (- (- ?x586 ?x838) ?x122) (* (* 3.0 _a_3_) l_1_2_6)) ?x548)))
 (= (- (+ (+ ?x550 ?x1429) _a_5_) (* (* 2.0 l_1_2_15) l_1_2_18)) 0.0))))))))
(assert
 (let ((?x1100 (* 2.0 l_1_2_8)))
 (let ((?x228 (* 4.0 _a_2_)))
 (let ((?x1379 (+ ?x228 _a_4_)))
 (let ((?x1381 (- ?x1379 (* l_1_2_10 (+ (* (* 2.0 _a_1_) _a_2_) (* _a_4_ _a_4_))))))
 (let ((?x1099 (- (- ?x1381 (* l_1_2_12 (- (- _a_1_) _a_2_))) (* l_1_2_6 (- (- _a_1_) _a_2_)))))
 (= (- ?x1099 ?x1100) 0.0)))))))
(assert
 (let ((?x1543 (* _a_4_ l_1_2_6)))
 (let ((?x1541 (* _a_4_ l_1_2_12)))
 (let ((?x1542 (+ (+ (* (* (* (- 2.0) _a_2_) _a_4_) l_1_2_10) (* 4.0 _a_2_)) ?x1541)))
 (= (+ ?x1542 ?x1543) 0.0)))))
(assert
 (let ((?x176 (+ (* (* 2.0 _a_0_) _a_4_) (* (* 2.0 _a_3_) _a_5_))))
 (let ((?x743 (* 2.0 _a_4_)))
 (let ((?x1504 (* _a_4_ l_1_2_9)))
 (let ((?x759 (* _a_4_ l_1_2_3)))
 (let ((?x708 (* _a_4_ l_1_2_2)))
 (let ((?x206 (* 2.0 _a_3_)))
 (let ((?x228 (* 4.0 _a_2_)))
 (let ((?x790 (+ ?x228 ?x206)))
 (let ((?x756 (- (- (- (- ?x790 (* (* 3.0 _a_4_) l_1_2_12)) ?x708) ?x759) (* (* 3.0 _a_4_) l_1_2_6))))
 (let ((?x1489 (- (- (- (- ?x756 ?x1504) ?x743) (* l_1_2_10 ?x176)) (* (* 2.0 l_1_2_16) l_1_2_18))))
 (= (- ?x1489 (* (* 2.0 l_1_2_17) l_1_2_19)) 0.0))))))))))))
(assert
 (let ((?x914 (- (+ (+ (* _a_2_ l_1_2_12) (* _a_2_ l_1_2_6)) _a_2_) (* (* l_1_2_10 _a_2_) _a_2_))))
 (= (- ?x914 l_1_2_8) 0.0)))
(assert
 (let ((?x743 (* 2.0 _a_4_)))
 (let ((?x1543 (* _a_4_ l_1_2_6)))
 (let ((?x1541 (* _a_4_ l_1_2_12)))
 (let ((?x674 (+ (+ (+ (* (* (* (- 2.0) _a_1_) _a_4_) l_1_2_10) ?x1541) ?x1543) ?x743)))
 (= ?x674 0.0))))))
(assert
 (let ((?x1536 (+ (* (* 2.0 _a_2_) _a_5_) (* (* 2.0 _a_3_) _a_4_))))
 (let ((?x563 (* _a_5_ l_1_2_6)))
 (let ((?x499 (- (+ (+ (* 2.0 _a_4_) (* _a_5_ l_1_2_12)) ?x563) (* l_1_2_10 ?x1536))))
 (= ?x499 0.0)))))
(assert
 (let ((?x1396 (* _a_3_ l_1_2_6)))
 (let ((?x1080 (* _a_3_ l_1_2_12)))
 (let ((?x231 (+ (+ (+ (* (* (* (- 2.0) _a_2_) _a_3_) l_1_2_10) ?x1080) ?x1396) _a_4_)))
 (= ?x231 0.0)))))
(assert
 (let ((?x73 (* _a_5_ l_1_2_9)))
 (let ((?x79 (* _a_5_ l_1_2_3)))
 (let ((?x81 (* _a_5_ l_1_2_2)))
 (let ((?x82 (- (* (* (* (- 2.0) _a_0_) _a_5_) l_1_2_10) (* (* 3.0 _a_5_) l_1_2_12))))
 (let ((?x72 (- (- (- (- ?x82 ?x81) ?x79) (* (* 3.0 _a_5_) l_1_2_6)) ?x73)))
 (= (- ?x72 (* (* 2.0 l_1_2_15) l_1_2_16)) 0.0)))))))
(assert
 (let ((?x563 (* _a_5_ l_1_2_6)))
 (let ((?x561 (* _a_5_ l_1_2_12)))
 (= (+ (+ (* (* (* (- 2.0) _a_1_) _a_5_) l_1_2_10) ?x561) ?x563) 0.0))))
(assert
 (>= l_1_2_1 0.0))
(assert
 (>= l_1_2_2 0.0))
(assert
 (>= l_1_2_3 0.0))
(assert
 (>= l_1_2_4 0.0))
(assert
 (>= l_1_2_5 0.0))
(assert
 (>= l_1_2_6 0.0))
(assert
 (>= l_1_2_7 0.0))
(assert
 (>= l_1_2_8 0.0))
(assert
 (>= l_1_2_9 0.0))
(assert
 (>= l_1_2_10 0.0))
(assert
 (>= l_1_2_11 0.0))
(assert
 (>= l_1_2_12 0.0))
(assert
 (>= l_1_2_13 0.0))
(assert
 (>= l_1_2_14 0.0))
(assert
 (>= l_1_2_15 0.0))
(assert
 (>= l_1_2_17 0.0))
(assert
 (>= l_1_2_20 0.0))
(check-sat)
(get-model)